120
150
49
57
44
48
56
46
59
59
43
58
53
51
46
49
59
57
53
46
43
57
57
42
50
46
47
48
59
56
51
54
45
43
51
43
59
51
56
52
50
57
55
49
51
40
57
55
46
45
50
57
47
58
46
45
53
47
40
57
43
42
55
55
57
49
44
51
51
48
50
46
54
59
59
46
54
59
50
50
59
44
59
42
41
51
47
50
40
56
44
40
49
40
52
51
51
49
51
59
54
54
48
52
40
56
42
59
44
47
51
42
48
51
46
58
49
56
51
46
46
53
